81
83
48
61
19
51
2
24
37
16
55
86
25
92
47
31
38
0
58
33
60
72
79
44
18
3
99
63
66
22
5
12
76
34
13
82
43
42
6
78
90
32
85
57
98
17
9
80
75
49
29
36
14
94
73
28
8
74
39
68
10
15
40
21
87
67
26
50
52
35
54
97
62
27
59
77
65
11
95
96
89
1
46
30
71
41
93
70
4
53
69
64
20
91
84
56
88
23
7
45
